nK = 2393;
nT = 6;
nI = 14;
L = 35;
TT = 489;
np = 1;
nc = 3;
b = [31, 57, 43, 62, 69, 47, 56, 24, 29, 55, 45, 38, 33, 35];
d = [53, 117, 135, 111, 135, 116, 126, 91, 134, 133, 147, 84, 81, 72];
m = [1.3, 1.3, 1.8, 2.3, 1.7, 1.9, 2.5, 1.8, 1.4, 2.3, 1.2, 1.5, 1.2, 2.4];
pt = [0.2, 0.24, 0.27, 0.24, 0.24, 0.33];
st = [10.4, 13.68, 11.07, 11.52, 10.8, 17.16];
arc = {<1, 0, 1, 1, 0, 0, 0, [1, 1, 1, 1, 1, 1]>, <2, 1, 2, 1, 0, 0, 0, [1, 1, 1, 1, 1, 1]>, <3, 2, 3, 1, 0, 0, 0, [1, 1, 1, 1, 1, 1]>, <4, 3, 4, 1, 0, 0, 0, [1, 1, 1, 1, 1, 1]>, <5, 4, 5, 1, 0, 0, 0, [1, 1, 1, 1, 1, 1]>, <6, 5, 6, 1, 0, 0, 0, [1, 1, 1, 1, 1, 1]>, <7, 6, 7, 1, 0, 0, 0, [1, 1, 1, 1, 1, 1]>, <8, 7, 8, 1, 0, 0, 0, [1, 1, 1, 1, 1, 1]>, <9, 8, 9, 1, 0, 0, 0, [1, 1, 1, 1, 1, 1]>, <10, 9, 10, 1, 0, 0, 0, [1, 1, 1, 1, 1, 1]>, <11, 10, 11, 1, 0, 0, 0, [1, 1, 1, 1, 1, 1]>, <12, 11, 12, 1, 0, 0, 0, [1, 1, 1, 1, 1, 1]>, <13, 12, 13, 1, 0, 0, 0, [1, 1, 1, 1, 1, 1]>, <14, 13, 14, 1, 0, 0, 0, [1, 1, 1, 1, 1, 1]>, <15, 14, 15, 1, 0, 0, 0, [1, 1, 1, 1, 1, 1]>, <16, 15, 16, 1, 0, 0, 0, [1, 1, 1, 1, 1, 1]>, <17, 16, 17, 1, 0, 0, 0, [1, 1, 1, 1, 1, 1]>, <18, 17, 18, 1, 0, 0, 0, [1, 1, 1, 1, 1, 1]>, <19, 18, 19, 1, 0, 0, 0, [1, 1, 1, 1, 1, 1]>, <20, 19, 20, 1, 0, 0, 0, [1, 1, 1, 1, 1, 1]>, <21, 20, 21, 1, 0, 0, 0, [1, 1, 1, 1, 1, 1]>, <22, 21, 22, 1, 0, 0, 0, [1, 1, 1, 1, 1, 1]>, <23, 22, 23, 1, 0, 0, 0, [1, 1, 1, 1, 1, 1]>, <24, 23, 24, 1, 0, 0, 0, [1, 1, 1, 1, 1, 1]>, <25, 24, 25, 1, 0, 0, 0, [1, 1, 1, 1, 1, 1]>, <26, 25, 26, 1, 0, 0, 0, [1, 1, 1, 1, 1, 1]>, <27, 26, 27, 1, 0, 0, 0, [1, 1, 1, 1, 1, 1]>, <28, 27, 28, 1, 0, 0, 0, [1, 1, 1, 1, 1, 1]>, <29, 28, 29, 1, 0, 0, 0, [1, 1, 1, 1, 1, 1]>, <30, 29, 30, 1, 0, 0, 0, [1, 1, 1, 1, 1, 1]>, <31, 30, 31, 1, 0, 0, 0, [1, 1, 1, 1, 1, 1]>, <32, 31, 32, 1, 0, 0, 0, [1, 1, 1, 1, 1, 1]>, <33, 32, 33, 1, 0, 0, 0, [1, 1, 1, 1, 1, 1]>, <34, 33, 34, 1, 0, 0, 0, [1, 1, 1, 1, 1, 1]>, <35, 34, 35, 1, 0, 0, 0, [1, 1, 1, 1, 1, 1]>, <36, 0, 21, 21, 1, 0, 1, [1, 0, 0, 0, 0, 1]>, <37, 1, 22, 21, 1, 0, 1, [1, 0, 0, 0, 0, 1]>, <38, 2, 23, 21, 1, 0, 1, [1, 0, 0, 0, 0, 1]>, <39, 3, 24, 21, 1, 0, 1, [1, 0, 0, 0, 0, 1]>, <40, 4, 25, 21, 1, 0, 1, [1, 0, 0, 0, 0, 1]>, <41, 5, 26, 21, 1, 0, 1, [1, 0, 0, 0, 0, 1]>, <42, 6, 27, 21, 1, 0, 1, [1, 0, 0, 0, 0, 1]>, <43, 7, 28, 21, 1, 0, 1, [1, 0, 0, 0, 0, 1]>, <44, 8, 29, 21, 1, 0, 1, [1, 0, 0, 0, 0, 1]>, <45, 9, 30, 21, 1, 0, 1, [1, 0, 0, 0, 0, 1]>, <46, 10, 31, 21, 1, 0, 1, [1, 0, 0, 0, 0, 1]>, <47, 11, 32, 21, 1, 0, 1, [1, 0, 0, 0, 0, 1]>, <48, 12, 33, 21, 1, 0, 1, [1, 0, 0, 0, 0, 1]>, <49, 13, 34, 21, 1, 0, 1, [1, 0, 0, 0, 0, 1]>, <50, 14, 35, 21, 1, 0, 1, [1, 0, 0, 0, 0, 1]>, <51, 0, 22, 22, 2, 0, 0, [0, 0, 0, 1, 1, 0]>, <52, 1, 23, 22, 2, 0, 0, [0, 0, 0, 1, 1, 0]>, <53, 2, 24, 22, 2, 0, 0, [0, 0, 0, 1, 1, 0]>, <54, 3, 25, 22, 2, 0, 0, [0, 0, 0, 1, 1, 0]>, <55, 4, 26, 22, 2, 0, 0, [0, 0, 0, 1, 1, 0]>, <56, 5, 27, 22, 2, 0, 0, [0, 0, 0, 1, 1, 0]>, <57, 6, 28, 22, 2, 0, 0, [0, 0, 0, 1, 1, 0]>, <58, 7, 29, 22, 2, 0, 0, [0, 0, 0, 1, 1, 0]>, <59, 8, 30, 22, 2, 0, 0, [0, 0, 0, 1, 1, 0]>, <60, 9, 31, 22, 2, 0, 0, [0, 0, 0, 1, 1, 0]>, <61, 10, 32, 22, 2, 0, 0, [0, 0, 0, 1, 1, 0]>, <62, 11, 33, 22, 2, 0, 0, [0, 0, 0, 1, 1, 0]>, <63, 12, 34, 22, 2, 0, 0, [0, 0, 0, 1, 1, 0]>, <64, 13, 35, 22, 2, 0, 0, [0, 0, 0, 1, 1, 0]>, <65, 0, 21, 21, 3, 0, 1, [1, 1, 0, 0, 0, 0]>, <66, 1, 22, 21, 3, 0, 1, [1, 1, 0, 0, 0, 0]>, <67, 2, 23, 21, 3, 0, 1, [1, 1, 0, 0, 0, 0]>, <68, 3, 24, 21, 3, 0, 1, [1, 1, 0, 0, 0, 0]>, <69, 4, 25, 21, 3, 0, 1, [1, 1, 0, 0, 0, 0]>, <70, 5, 26, 21, 3, 0, 1, [1, 1, 0, 0, 0, 0]>, <71, 6, 27, 21, 3, 0, 1, [1, 1, 0, 0, 0, 0]>, <72, 7, 28, 21, 3, 0, 1, [1, 1, 0, 0, 0, 0]>, <73, 8, 29, 21, 3, 0, 1, [1, 1, 0, 0, 0, 0]>, <74, 9, 30, 21, 3, 0, 1, [1, 1, 0, 0, 0, 0]>, <75, 10, 31, 21, 3, 0, 1, [1, 1, 0, 0, 0, 0]>, <76, 11, 32, 21, 3, 0, 1, [1, 1, 0, 0, 0, 0]>, <77, 12, 33, 21, 3, 0, 1, [1, 1, 0, 0, 0, 0]>, <78, 13, 34, 21, 3, 0, 1, [1, 1, 0, 0, 0, 0]>, <79, 14, 35, 21, 3, 0, 1, [1, 1, 0, 0, 0, 0]>, <80, 0, 18, 18, 4, 0, 0, [1, 1, 0, 0, 0, 0]>, <81, 1, 19, 18, 4, 0, 0, [1, 1, 0, 0, 0, 0]>, <82, 2, 20, 18, 4, 0, 0, [1, 1, 0, 0, 0, 0]>, <83, 3, 21, 18, 4, 0, 0, [1, 1, 0, 0, 0, 0]>, <84, 4, 22, 18, 4, 0, 0, [1, 1, 0, 0, 0, 0]>, <85, 5, 23, 18, 4, 0, 0, [1, 1, 0, 0, 0, 0]>, <86, 6, 24, 18, 4, 0, 0, [1, 1, 0, 0, 0, 0]>, <87, 8, 26, 18, 4, 0, 0, [1, 1, 0, 0, 0, 0]>, <88, 9, 27, 18, 4, 0, 0, [1, 1, 0, 0, 0, 0]>, <89, 10, 28, 18, 4, 0, 0, [1, 1, 0, 0, 0, 0]>, <90, 11, 29, 18, 4, 0, 0, [1, 1, 0, 0, 0, 0]>, <91, 12, 30, 18, 4, 0, 0, [1, 1, 0, 0, 0, 0]>, <92, 13, 31, 18, 4, 0, 0, [1, 1, 0, 0, 0, 0]>, <93, 14, 32, 18, 4, 0, 0, [1, 1, 0, 0, 0, 0]>, <94, 15, 33, 18, 4, 0, 0, [1, 1, 0, 0, 0, 0]>, <95, 16, 34, 18, 4, 0, 0, [1, 1, 0, 0, 0, 0]>, <96, 17, 35, 18, 4, 0, 0, [1, 1, 0, 0, 0, 0]>, <97, 0, 17, 17, 5, 0, 0, [1, 1, 0, 0, 0, 0]>, <98, 1, 18, 17, 5, 0, 0, [1, 1, 0, 0, 0, 0]>, <99, 2, 19, 17, 5, 0, 0, [1, 1, 0, 0, 0, 0]>, <100, 3, 20, 17, 5, 0, 0, [1, 1, 0, 0, 0, 0]>, <101, 4, 21, 17, 5, 0, 0, [1, 1, 0, 0, 0, 0]>, <102, 5, 22, 17, 5, 0, 0, [1, 1, 0, 0, 0, 0]>, <103, 6, 23, 17, 5, 0, 0, [1, 1, 0, 0, 0, 0]>, <104, 9, 26, 17, 5, 0, 0, [1, 1, 0, 0, 0, 0]>, <105, 10, 27, 17, 5, 0, 0, [1, 1, 0, 0, 0, 0]>, <106, 11, 28, 17, 5, 0, 0, [1, 1, 0, 0, 0, 0]>, <107, 12, 29, 17, 5, 0, 0, [1, 1, 0, 0, 0, 0]>, <108, 13, 30, 17, 5, 0, 0, [1, 1, 0, 0, 0, 0]>, <109, 14, 31, 17, 5, 0, 0, [1, 1, 0, 0, 0, 0]>, <110, 15, 32, 17, 5, 0, 0, [1, 1, 0, 0, 0, 0]>, <111, 16, 33, 17, 5, 0, 0, [1, 1, 0, 0, 0, 0]>, <112, 17, 34, 17, 5, 0, 0, [1, 1, 0, 0, 0, 0]>, <113, 18, 35, 17, 5, 0, 0, [1, 1, 0, 0, 0, 0]>, <114, 0, 20, 20, 6, 1, 0, [1, 0, 0, 0, 0, 1]>, <115, 1, 21, 20, 6, 1, 0, [1, 0, 0, 0, 0, 1]>, <116, 2, 22, 20, 6, 1, 0, [1, 0, 0, 0, 0, 1]>, <117, 3, 23, 20, 6, 1, 0, [1, 0, 0, 0, 0, 1]>, <118, 4, 24, 20, 6, 1, 0, [1, 0, 0, 0, 0, 1]>, <119, 5, 25, 20, 6, 1, 0, [1, 0, 0, 0, 0, 1]>, <120, 6, 26, 20, 6, 1, 0, [1, 0, 0, 0, 0, 1]>, <121, 7, 27, 20, 6, 1, 0, [1, 0, 0, 0, 0, 1]>, <122, 8, 28, 20, 6, 1, 0, [1, 0, 0, 0, 0, 1]>, <123, 9, 29, 20, 6, 1, 0, [1, 0, 0, 0, 0, 1]>, <124, 10, 30, 20, 6, 1, 0, [1, 0, 0, 0, 0, 1]>, <125, 11, 31, 20, 6, 1, 0, [1, 0, 0, 0, 0, 1]>, <126, 12, 32, 20, 6, 1, 0, [1, 0, 0, 0, 0, 1]>, <127, 13, 33, 20, 6, 1, 0, [1, 0, 0, 0, 0, 1]>, <128, 14, 34, 20, 6, 1, 0, [1, 0, 0, 0, 0, 1]>, <129, 15, 35, 20, 6, 1, 0, [1, 0, 0, 0, 0, 1]>, <130, 0, 20, 20, 7, 0, 1, [1, 1, 0, 0, 0, 0]>, <131, 1, 21, 20, 7, 0, 1, [1, 1, 0, 0, 0, 0]>, <132, 2, 22, 20, 7, 0, 1, [1, 1, 0, 0, 0, 0]>, <133, 3, 23, 20, 7, 0, 1, [1, 1, 0, 0, 0, 0]>, <134, 4, 24, 20, 7, 0, 1, [1, 1, 0, 0, 0, 0]>, <135, 5, 25, 20, 7, 0, 1, [1, 1, 0, 0, 0, 0]>, <136, 6, 26, 20, 7, 0, 1, [1, 1, 0, 0, 0, 0]>, <137, 7, 27, 20, 7, 0, 1, [1, 1, 0, 0, 0, 0]>, <138, 8, 28, 20, 7, 0, 1, [1, 1, 0, 0, 0, 0]>, <139, 9, 29, 20, 7, 0, 1, [1, 1, 0, 0, 0, 0]>, <140, 10, 30, 20, 7, 0, 1, [1, 1, 0, 0, 0, 0]>, <141, 11, 31, 20, 7, 0, 1, [1, 1, 0, 0, 0, 0]>, <142, 12, 32, 20, 7, 0, 1, [1, 1, 0, 0, 0, 0]>, <143, 13, 33, 20, 7, 0, 1, [1, 1, 0, 0, 0, 0]>, <144, 14, 34, 20, 7, 0, 1, [1, 1, 0, 0, 0, 0]>, <145, 15, 35, 20, 7, 0, 1, [1, 1, 0, 0, 0, 0]>, <146, 0, 20, 20, 8, 1, 0, [0, 0, 1, 1, 0, 0]>, <147, 1, 21, 20, 8, 1, 0, [0, 0, 1, 1, 0, 0]>, <148, 2, 22, 20, 8, 1, 0, [0, 0, 1, 1, 0, 0]>, <149, 3, 23, 20, 8, 1, 0, [0, 0, 1, 1, 0, 0]>, <150, 4, 24, 20, 8, 1, 0, [0, 0, 1, 1, 0, 0]>, <151, 5, 25, 20, 8, 1, 0, [0, 0, 1, 1, 0, 0]>, <152, 6, 26, 20, 8, 1, 0, [0, 0, 1, 1, 0, 0]>, <153, 7, 27, 20, 8, 1, 0, [0, 0, 1, 1, 0, 0]>, <154, 8, 28, 20, 8, 1, 0, [0, 0, 1, 1, 0, 0]>, <155, 9, 29, 20, 8, 1, 0, [0, 0, 1, 1, 0, 0]>, <156, 10, 30, 20, 8, 1, 0, [0, 0, 1, 1, 0, 0]>, <157, 11, 31, 20, 8, 1, 0, [0, 0, 1, 1, 0, 0]>, <158, 12, 32, 20, 8, 1, 0, [0, 0, 1, 1, 0, 0]>, <159, 13, 33, 20, 8, 1, 0, [0, 0, 1, 1, 0, 0]>, <160, 14, 34, 20, 8, 1, 0, [0, 0, 1, 1, 0, 0]>, <161, 15, 35, 20, 8, 1, 0, [0, 0, 1, 1, 0, 0]>, <162, 0, 20, 20, 9, 0, 1, [1, 0, 0, 0, 0, 1]>, <163, 1, 21, 20, 9, 0, 1, [1, 0, 0, 0, 0, 1]>, <164, 2, 22, 20, 9, 0, 1, [1, 0, 0, 0, 0, 1]>, <165, 3, 23, 20, 9, 0, 1, [1, 0, 0, 0, 0, 1]>, <166, 4, 24, 20, 9, 0, 1, [1, 0, 0, 0, 0, 1]>, <167, 5, 25, 20, 9, 0, 1, [1, 0, 0, 0, 0, 1]>, <168, 6, 26, 20, 9, 0, 1, [1, 0, 0, 0, 0, 1]>, <169, 7, 27, 20, 9, 0, 1, [1, 0, 0, 0, 0, 1]>, <170, 8, 28, 20, 9, 0, 1, [1, 0, 0, 0, 0, 1]>, <171, 9, 29, 20, 9, 0, 1, [1, 0, 0, 0, 0, 1]>, <172, 10, 30, 20, 9, 0, 1, [1, 0, 0, 0, 0, 1]>, <173, 11, 31, 20, 9, 0, 1, [1, 0, 0, 0, 0, 1]>, <174, 12, 32, 20, 9, 0, 1, [1, 0, 0, 0, 0, 1]>, <175, 13, 33, 20, 9, 0, 1, [1, 0, 0, 0, 0, 1]>, <176, 14, 34, 20, 9, 0, 1, [1, 0, 0, 0, 0, 1]>, <177, 15, 35, 20, 9, 0, 1, [1, 0, 0, 0, 0, 1]>, <178, 0, 17, 17, 10, 0, 1, [0, 0, 1, 1, 0, 0]>, <179, 1, 18, 17, 10, 0, 1, [0, 0, 1, 1, 0, 0]>, <180, 2, 19, 17, 10, 0, 1, [0, 0, 1, 1, 0, 0]>, <181, 3, 20, 17, 10, 0, 1, [0, 0, 1, 1, 0, 0]>, <182, 4, 21, 17, 10, 0, 1, [0, 0, 1, 1, 0, 0]>, <183, 5, 22, 17, 10, 0, 1, [0, 0, 1, 1, 0, 0]>, <184, 6, 23, 17, 10, 0, 1, [0, 0, 1, 1, 0, 0]>, <185, 9, 26, 17, 10, 0, 1, [0, 0, 1, 1, 0, 0]>, <186, 10, 27, 17, 10, 0, 1, [0, 0, 1, 1, 0, 0]>, <187, 11, 28, 17, 10, 0, 1, [0, 0, 1, 1, 0, 0]>, <188, 12, 29, 17, 10, 0, 1, [0, 0, 1, 1, 0, 0]>, <189, 13, 30, 17, 10, 0, 1, [0, 0, 1, 1, 0, 0]>, <190, 14, 31, 17, 10, 0, 1, [0, 0, 1, 1, 0, 0]>, <191, 15, 32, 17, 10, 0, 1, [0, 0, 1, 1, 0, 0]>, <192, 16, 33, 17, 10, 0, 1, [0, 0, 1, 1, 0, 0]>, <193, 17, 34, 17, 10, 0, 1, [0, 0, 1, 1, 0, 0]>, <194, 18, 35, 17, 10, 0, 1, [0, 0, 1, 1, 0, 0]>, <195, 0, 22, 22, 11, 0, 1, [0, 0, 1, 1, 0, 0]>, <196, 1, 23, 22, 11, 0, 1, [0, 0, 1, 1, 0, 0]>, <197, 2, 24, 22, 11, 0, 1, [0, 0, 1, 1, 0, 0]>, <198, 3, 25, 22, 11, 0, 1, [0, 0, 1, 1, 0, 0]>, <199, 4, 26, 22, 11, 0, 1, [0, 0, 1, 1, 0, 0]>, <200, 5, 27, 22, 11, 0, 1, [0, 0, 1, 1, 0, 0]>, <201, 6, 28, 22, 11, 0, 1, [0, 0, 1, 1, 0, 0]>, <202, 7, 29, 22, 11, 0, 1, [0, 0, 1, 1, 0, 0]>, <203, 8, 30, 22, 11, 0, 1, [0, 0, 1, 1, 0, 0]>, <204, 9, 31, 22, 11, 0, 1, [0, 0, 1, 1, 0, 0]>, <205, 10, 32, 22, 11, 0, 1, [0, 0, 1, 1, 0, 0]>, <206, 11, 33, 22, 11, 0, 1, [0, 0, 1, 1, 0, 0]>, <207, 12, 34, 22, 11, 0, 1, [0, 0, 1, 1, 0, 0]>, <208, 13, 35, 22, 11, 0, 1, [0, 0, 1, 1, 0, 0]>, <209, 0, 18, 18, 12, 1, 0, [1, 0, 0, 0, 0, 1]>, <210, 1, 19, 18, 12, 1, 0, [1, 0, 0, 0, 0, 1]>, <211, 2, 20, 18, 12, 1, 0, [1, 0, 0, 0, 0, 1]>, <212, 3, 21, 18, 12, 1, 0, [1, 0, 0, 0, 0, 1]>, <213, 4, 22, 18, 12, 1, 0, [1, 0, 0, 0, 0, 1]>, <214, 5, 23, 18, 12, 1, 0, [1, 0, 0, 0, 0, 1]>, <215, 6, 24, 18, 12, 1, 0, [1, 0, 0, 0, 0, 1]>, <216, 8, 26, 18, 12, 1, 0, [1, 0, 0, 0, 0, 1]>, <217, 9, 27, 18, 12, 1, 0, [1, 0, 0, 0, 0, 1]>, <218, 10, 28, 18, 12, 1, 0, [1, 0, 0, 0, 0, 1]>, <219, 11, 29, 18, 12, 1, 0, [1, 0, 0, 0, 0, 1]>, <220, 12, 30, 18, 12, 1, 0, [1, 0, 0, 0, 0, 1]>, <221, 13, 31, 18, 12, 1, 0, [1, 0, 0, 0, 0, 1]>, <222, 14, 32, 18, 12, 1, 0, [1, 0, 0, 0, 0, 1]>, <223, 15, 33, 18, 12, 1, 0, [1, 0, 0, 0, 0, 1]>, <224, 16, 34, 18, 12, 1, 0, [1, 0, 0, 0, 0, 1]>, <225, 17, 35, 18, 12, 1, 0, [1, 0, 0, 0, 0, 1]>, <226, 0, 17, 17, 13, 0, 1, [0, 1, 1, 0, 0, 0]>, <227, 1, 18, 17, 13, 0, 1, [0, 1, 1, 0, 0, 0]>, <228, 2, 19, 17, 13, 0, 1, [0, 1, 1, 0, 0, 0]>, <229, 3, 20, 17, 13, 0, 1, [0, 1, 1, 0, 0, 0]>, <230, 4, 21, 17, 13, 0, 1, [0, 1, 1, 0, 0, 0]>, <231, 5, 22, 17, 13, 0, 1, [0, 1, 1, 0, 0, 0]>, <232, 6, 23, 17, 13, 0, 1, [0, 1, 1, 0, 0, 0]>, <233, 9, 26, 17, 13, 0, 1, [0, 1, 1, 0, 0, 0]>, <234, 10, 27, 17, 13, 0, 1, [0, 1, 1, 0, 0, 0]>, <235, 11, 28, 17, 13, 0, 1, [0, 1, 1, 0, 0, 0]>, <236, 12, 29, 17, 13, 0, 1, [0, 1, 1, 0, 0, 0]>, <237, 13, 30, 17, 13, 0, 1, [0, 1, 1, 0, 0, 0]>, <238, 14, 31, 17, 13, 0, 1, [0, 1, 1, 0, 0, 0]>, <239, 15, 32, 17, 13, 0, 1, [0, 1, 1, 0, 0, 0]>, <240, 16, 33, 17, 13, 0, 1, [0, 1, 1, 0, 0, 0]>, <241, 17, 34, 17, 13, 0, 1, [0, 1, 1, 0, 0, 0]>, <242, 18, 35, 17, 13, 0, 1, [0, 1, 1, 0, 0, 0]>, <243, 0, 20, 20, 14, 0, 1, [0, 0, 0, 1, 1, 0]>, <244, 1, 21, 20, 14, 0, 1, [0, 0, 0, 1, 1, 0]>, <245, 2, 22, 20, 14, 0, 1, [0, 0, 0, 1, 1, 0]>, <246, 3, 23, 20, 14, 0, 1, [0, 0, 0, 1, 1, 0]>, <247, 4, 24, 20, 14, 0, 1, [0, 0, 0, 1, 1, 0]>, <248, 5, 25, 20, 14, 0, 1, [0, 0, 0, 1, 1, 0]>, <249, 6, 26, 20, 14, 0, 1, [0, 0, 0, 1, 1, 0]>, <250, 7, 27, 20, 14, 0, 1, [0, 0, 0, 1, 1, 0]>, <251, 8, 28, 20, 14, 0, 1, [0, 0, 0, 1, 1, 0]>, <252, 9, 29, 20, 14, 0, 1, [0, 0, 0, 1, 1, 0]>, <253, 10, 30, 20, 14, 0, 1, [0, 0, 0, 1, 1, 0]>, <254, 11, 31, 20, 14, 0, 1, [0, 0, 0, 1, 1, 0]>, <255, 12, 32, 20, 14, 0, 1, [0, 0, 0, 1, 1, 0]>, <256, 13, 33, 20, 14, 0, 1, [0, 0, 0, 1, 1, 0]>, <257, 14, 34, 20, 14, 0, 1, [0, 0, 0, 1, 1, 0]>, <258, 15, 35, 20, 14, 0, 1, [0, 0, 0, 1, 1, 0]>};
